10
10
0 42 51 77 64 33 15 56 69 65
9
0 36 53 67 66 70 54 9 55
6
0 13 60 46 25 35
1
0
11
0 1 7 63 11 34 24 6 2 37 8
12
0 49 73 38 58 76 72 50 32 45 22 4
11
0 40 21 10 71 14 52 28 79 48 18
7
0 3 39 41 47 19 26
12
0 74 29 17 31 27 59 78 68 61 16 43
10
0 62 23 44 12 5 30 20 75 57
